NAME: iago07.tsp
COMMENT: 9 city problem (Kleinschmidt)
TYPE: TSP
DIMENSION: 9
EDGE_WEIGHT_FORMAT: LOWER_DIAG_ROW
EDGE_WEIGHT_SECTION
0 
10 0 
13 10 0 
16 13 10 0 
18 16 13 10 0 
31 18 16 13 10 0 
91 31 18 16 13 10 0 
51 91 31 18 16 13 10 0 
61 51 91 31 18 16 13 10 0 
10 61 51 91 31 18 16 13 10 0 
EOF